n: 25
c: 13570                              

957	20165
948	19975
57	1201
85	1791
836	17615
736	15508
670	14117
309	6511
606	12769
607	12790
582	12263
159	3350
431	9081
394	8302
724	15255
995	20965
950	20017
545	11483
445	9376
269	5668
465	9798
319	6721
381	8028
892	18795
526	11083
